n = 100;
volume = [1,1,2,2,3,4,5,6,7,9,1,1,2,2,3,4,5,6,7,9,1,1,2,2,3,4,5,6,7,9,1,1,2,2,3,4,5,6,7,9,1,1,2,2,3,4,5,6,7,9,1,1,2,2,3,4,5,6,7,9,1,1,2,2,3,4,5,6,7,9,1,1,2,2,3,4,5,6,7,9,1,1,2,2,3,4,5,6,7,9,1,1,2,2,3,4,5,6,7,9];
k = 50;
V = 10;
